Route #1: 75 68 2 74 28 62 73 33 16 3
Route #2: 32 44 49 24 18 50 55 25 9 39 72
Route #3: 63 23 56 41 64 42 43 1 22 61
Route #4: 21 47 36 69 71 60 70 20 37 15 57 13
Route #5: 52 27 45 29 5 48 30 4
Route #6: 34 54 19 59 14 53 35 8 46
Route #7: 38 11 66 65 31 10 58
Route #8: 67 7 26 12 40 17 51 6
Cost 806